200 20 37 50
-1
-1
-1
-1
-1
11 17 -1
2 18 -1
12 -1
4 9 16 20 -1
16 -1
13 -1
1 10 11 -1
13 15 -1
-1
14 15 18 -1
3 13 -1
-1
14 -1
-1
5 16 -1
4 -1
11 12 20 -1
10 16 -1
-1
12 -1
-1
4 -1
-1
3 15 -1
8 20 -1
-1
11 -1
-1
2 4 17 -1
8 12 14 -1
-1
-1
-1
-1
10 -1
11 -1
6 -1
1 -1
11 -1
-1
-1
20 -1
11 18 -1
8 -1
12 16 -1
-1
19 -1
-1
-1
-1
18 -1
2 3 -1
-1
5 -1
10 -1
2 -1
-1
16 -1
1 -1
18 19 -1
7 -1
-1
2 6 -1
2 14 -1
12 -1
19 -1
8 18 -1
-1
1 5 17 20 -1
8 11 -1
-1
-1
-1
9 -1
-1
7 10 -1
19 -1
-1
16 20 -1
-1
13 15 20 -1
-1
-1
3 16 -1
18 -1
-1
10 -1
9 -1
-1
1 -1
-1
10 -1
-1
17 -1
-1
10 -1
-1
6 -1
-1
2 -1
18 -1
19 -1
-1
-1
-1
8 -1
3 -1
20 -1
16 -1
-1
7 8 16 -1
9 17 -1
3 7 -1
12 -1
2 -1
8 -1
13 -1
-1
-1
-1
6 -1
10 -1
7 8 10 -1
3 -1
-1
6 13 -1
18 -1
-1
8 -1
-1
17 -1
-1
-1
18 -1
14 -1
-1
2 3 -1
3 12 19 -1
2 -1
2 8 18 -1
-1
1 20 -1
4 11 -1
5 20 -1
10 -1
20 -1
8 -1
7 -1
-1
-1
4 -1
10 13 16 -1
-1
-1
4 12 19 -1
-1
-1
7 -1
18 -1
5 -1
10 15 18 -1
10 -1
-1
5 18 -1
-1
2 -1
-1
-1
3 -1
10 11 -1
-1
1 -1
-1
14 -1
-1
1 18 -1
6 11 13 16 -1
2 5 7 -1
14 -1
7 -1
8 -1
-1
-1
-1
1 -1
-1
7 -1
10 -1
10 -1
10 11 -1
6 -1
10 -1
8 -1
7 10 -1
3 17 -1
